
Gurobi 11.0.3 (linux64) logging started Tue 19 Nov 2024 01:30:33 AM CST

Set parameter LogFile to value "/home/dlcole3/graph_abstraction/hierarchical_graphs/git_storage/CS1/HP_low_reserves/gurobi_logs/serial/logfile_DA_30.log"
Set parameter TimeLimit to value 900

Gurobi 11.0.3 (linux64) logging started Tue 19 Nov 2024 01:30:34 AM CST

Set parameter LogFile to value "/home/dlcole3/graph_abstraction/hierarchical_graphs/git_storage/CS1/HP_low_reserves/gurobi_logs/serial/logfile_DA_30.log"
Gurobi Optimizer version 11.0.3 build v11.0.3rc0 (linux64 - "Ubuntu 18.04.3 LTS")

CPU model: Intel(R) Xeon(R) CPU E5-2698 v4 @ 2.20GHz, instruction set [SSE2|AVX|AVX2]
Thread count: 40 physical cores, 80 logical processors, using up to 20 threads

Optimize a model with 35850 rows, 31725 columns and 164765 nonzeros
Model fingerprint: 0x37467ad2
Variable types: 19950 continuous, 11775 integer (11775 binary)
Coefficient statistics:
  Matrix range     [5e-02, 2e+04]
  Objective range  [1e+00, 8e+04]
  Bounds range     [5e-02, 2e+05]
  RHS range        [4e-15, 7e+03]
Presolve removed 4388 rows and 5754 columns
Presolve time: 0.76s
Presolved: 31462 rows, 25971 columns, 145696 nonzeros
Variable types: 15470 continuous, 10501 integer (10501 binary)
Found heuristic solution: objective 9.847444e+08
Found heuristic solution: objective 8.113317e+08
Found heuristic solution: objective 5.926165e+08
Deterministic concurrent LP optimizer: primal and dual simplex
Showing primal log only...

Concurrent spin time: 0.01s

Solved with dual simplex

Use crossover to convert LP symmetric solution to basic solution...

Root relaxation: objective 1.067893e+07, 12305 iterations, 1.05 seconds (0.66 work units)

    Nodes    |    Current Node    |     Objective Bounds      |     Work
 Expl Unexpl |  Obj  Depth IntInf | Incumbent    BestBd   Gap | It/Node Time

     0     0 1.0679e+07    0  121 5.9262e+08 1.0679e+07  98.2%     -    3s
H    0     0                    5.916099e+08 1.0679e+07  98.2%     -    3s
H    0     0                    1.227829e+07 1.0679e+07  13.0%     -    3s
H    0     0                    1.087601e+07 1.0679e+07  1.81%     -    3s
H    0     0                    1.081976e+07 1.0682e+07  1.28%     -    3s
     0     0 1.0682e+07    0  158 1.0820e+07 1.0682e+07  1.28%     -    3s
     0     0 1.0688e+07    0  155 1.0820e+07 1.0688e+07  1.22%     -    4s
     0     0 1.0690e+07    0  193 1.0820e+07 1.0690e+07  1.20%     -    4s
     0     0 1.0696e+07    0  193 1.0820e+07 1.0696e+07  1.14%     -    5s
     0     0 1.0699e+07    0  193 1.0820e+07 1.0699e+07  1.11%     -    5s
     0     2 1.0699e+07    0  193 1.0820e+07 1.0699e+07  1.11%     -    6s
    31    52 1.0723e+07    5  123 1.0820e+07 1.0703e+07  1.08%   188   10s
H  166   168                    1.078788e+07 1.0715e+07  0.68%   144   14s
   171   169 1.0746e+07   11   86 1.0788e+07 1.0715e+07  0.68%   144   15s
H  198   183                    1.078508e+07 1.0715e+07  0.65%   130   22s
H  199   183                    1.078503e+07 1.0715e+07  0.65%   131   22s
H  200   183                    1.077451e+07 1.0715e+07  0.56%   130   22s
H  203   183                    1.075690e+07 1.0715e+07  0.39%   129   22s
H  207   183                    1.075487e+07 1.0715e+07  0.37%   128   22s
H  209   183                    1.075458e+07 1.0715e+07  0.37%   127   22s
   430   225 1.0754e+07   23   63 1.0755e+07 1.0720e+07  0.32%  89.9   25s
  1166   485 1.0755e+07   46    6 1.0755e+07 1.0722e+07  0.30%  61.2   30s
* 1167   485              47    1.075456e+07 1.0722e+07  0.30%  61.1   30s
H 1205   485                    1.075449e+07 1.0722e+07  0.30%  60.4   30s
H 1259   485                    1.075271e+07 1.0722e+07  0.28%  59.4   30s
H 2322   509                    1.075182e+07 1.0739e+07  0.12%  54.1   34s
* 2334   509              55    1.075089e+07 1.0739e+07  0.11%  53.9   34s
  2642   353 1.0747e+07   40   41 1.0751e+07 1.0741e+07  0.09%  52.0   35s

Cutting planes:
  Gomory: 7

Explored 2875 nodes (157820 simplex iterations) in 35.38 seconds (40.45 work units)
Thread count was 20 (of 80 available processors)

Solution count 10: 1.07509e+07 1.07518e+07 1.07527e+07 ... 1.0785e+07

Optimal solution found (tolerance 1.00e-03)
Best objective 1.075088589926e+07, best bound 1.074436837924e+07, gap 0.0606%

User-callback calls 10999, time in user-callback 0.01 sec
